smt/acc-fold/bench/smt/append_dll_size_slk-8.smt
(set-logic QF_S)

(declare-sort node2 0)
(declare-fun val () (Field node2 int))
(declare-fun prev () (Field node2 node2))
(declare-fun next () (Field node2 node2))

(define-fun dll ((?in node2) (?p node2) (?n int))
Space (tospace
(or
(= ?in nil)
(= ?n 0)
(exists ((?p_23 node2)(?self_24 node2)(?flted_12_22 int)) (tobool (ssep (pto ?in (sref (ref val ?Anon_13) (ref prev ?p_23) (ref next ?q) )) (dll ?q ?self_24 ?flted_12_22))))
)))













(declare-fun yprm () node2)
(declare-fun xprm () node2)
(declare-fun v_node2_26_1014prm () node2)
(declare-fun q () node2)
(declare-fun m () int)
(declare-fun y () node2)
(declare-fun x () node2)
(declare-fun v_bool_20_1015prm () boolean)
(declare-fun self_1057 () node2)
(declare-fun flted_12_1058 () int)
(declare-fun p () node2)
(declare-fun n () int)
(declare-fun Anon_1059 () int)
(declare-fun p_1056 () node2)
(declare-fun q_1060 () node2)


(assert 
(and 
(= flted_12_1058+1 m)
(= p_1056 q)
(= self_1057 xprm)
lt(= yprm y)
(= xprm x)
(distinct q_1060 nil)
(distinct q_1060 nil)
(= v_node2_26_1014prm q_1060)
(tobool (ssep 
(pto xprm (sref (ref val Anon_1059) (ref prev p_1056) (ref next q_1060) ))
(dll q_1060 self_1057 flted_12_1058)
(dll y p n)
emp
) )
)
)

(assert (not 
(and 
ltlt(= flted_12_1058+1 m)
(= p_1056 q)
(= self_1057 xprm)
lt(= yprm y)
(= xprm x)
(distinct q_1060 nil)
(distinct q_1060 nil)
(= v_node2_26_1014prm q_1060)
(= q_1187 self_1057)
(= m_1188 flted_12_1058)
(= p_1189 p)
(= n_1190 n)
(tobool (ssep 
(dll v_node2_26_1014prm q_1187 m_1188)
(dll yprm p_1189 n_1190)
(pto xprm (sref (ref val Anon_1059) (ref prev p_1056) (ref next q_1060) ))
emp
) )
)
))

(check-sat)